NAME: dataset3.tsp
TYPE: TSP
COMMENT: 3 random locations
DIMENSION: 3
EDGE_WEIGHT_TYPE: EUC_2D
NODE_COORD_SECTION
1 3385.8179695758 4688.7169885982
2 3908.9160169817 4110.7801600343
3 1424.7932791651 1250.2489025547
EOF
